c User generated cnf file
p cnf 15 69
13 -14 13 0 
6 -15 8 0 
8 -1 15 0 
-10 8 11 0 
-12 12 6 0 
10 12 -4 0 
-7 7 13 0 
1 1 -15 0 
6 3 -6 0 
-10 15 9 0 
2 15 -3 0 
-10 15 9 0 
-3 2 14 0 
3 -11 9 0 
15 -7 14 0 
-3 15 6 0 
13 13 -2 0 
13 14 -13 0 
3 10 -15 0 
13 13 -14 0 
-2 14 14 0 
10 11 -10 0 
-13 5 10 0 
13 -4 5 0 
8 11 -8 0 
6 -14 14 0 
-3 8 14 0 
-1 8 4 0 
10 12 -3 0 
3 13 -7 0 
-8 6 7 0 
6 6 -5 0 
9 -4 4 0 
-1 2 11 0 
-11 15 15 0 
9 8 -5 0 
-1 9 1 0 
-3 4 3 0 
7 -14 14 0 
10 12 -13 0 
-8 6 7 0 
8 -1 10 0 
8 2 -1 0 
-5 13 2 0 
3 -12 7 0 
-12 7 10 0 
13 6 -3 0 
-15 8 13 0 
2 12 -6 0 
2 -15 8 0 
-7 15 7 0 
-6 8 5 0 
6 -1 5 0 
4 14 -2 0 
-8 10 8 0 
15 15 -4 0 
1 13 -5 0 
7 2 -6 0 
-12 4 1 0 
-9 5 3 0 
5 -2 12 0 
-3 14 3 0 
12 6 -9 0 
-11 2 1 0 
6 6 -13 0 
-15 8 13 0 
7 12 -7 0 
3 10 -8 0 
13 7 -6 0 
